(set-logic QF_LIA)
(set-info :ran/ran2.smt2)
(set-info :smt-lib-version 2.0)
(declare-fun x1 () Int)
(declare-fun x2 () Int)
(declare-fun x3 () Int)
(assert (<= (+ (* 8 x1) (* 7 x2) (* 8 x3) ) (- 498)))
(assert (<= (+ (* (- 3) x1) (* 2 x2) (* (- 1) x3) ) (- 311)))
(assert (<= (+ (* 7 x1) (* (- 2) x2) (* 1 x3) ) 1347))
(assert (<= (+ (* (- 8) x1) (* 2 x2) (* 8 x3) ) 792))
(assert (<= (+ (* (- 8) x1) (* (- 8) x2) (* 7 x3) ) 242))
(assert (<= (+ (* 3 x1) (* (- 3) x2) (* 6 x3) ) 1))
(assert (<= (+ (* 1 x1) (* 0 x2) (* 0 x3) ) 1778))
(assert (<= (+ (* (- 1) x1) (* 0 x2) (* 0 x3) ) 1778))
(assert (<= (+ (* 0 x1) (* 1 x2) (* 0 x3) ) 1778))
(assert (<= (+ (* 0 x1) (* (- 1) x2) (* 0 x3) ) 1778))
(assert (<= (+ (* 0 x1) (* 0 x2) (* 1 x3) ) 1778))
(assert (<= (+ (* 0 x1) (* 0 x2) (* (- 1) x3) ) 1778))
